%mem=500MB
%chk=formaldehyde.chk
%nproc=1
#p B3LYP/6-31G(d) sp scf(fermi,tight) density(current)

formaldehyde

0  1
 O  0.677449566 -0.000000056  0.000001938
 C -0.529095856  0.000000035 -0.000007839
 H -1.122510337  0.938192624  0.000015764
 H -1.122511062 -0.938192380  0.000015764

