%mem=500MB
%chk=oxalic_acid.chk
%nproc=1
#p B3LYP/6-31G(d) sp scf(fermi,tight) density(current)

oxalic acid

0  1
 O -1.470826920  0.970430459  0.000294075
 O  1.470826333 -0.970430613  0.000269242
 O -1.209275513 -1.278515477 -0.000019070
 O  1.209275778  1.278515673 -0.000081652
 C -0.751917039 -0.162888060 -0.000378733
 C  0.751917680  0.162887803 -0.000461486
 H -2.408516366  0.699523114  0.000695074
 H  2.408515074 -0.699521918  0.000645468

