%mem=500MB
%chk=gaussian.chk
%nproc=1
#p B3LYP/6-31G(d) sp scf(fermi,tight) density(current)

Alanine radical

0 2
 O -1.549298159  1.065931869  0.075848451
 O -1.403284805 -1.050624429 -0.225098245
 N  1.089247020 -1.321005354  0.016383607
 C  0.657306584  0.017508033  0.389923485
 C  1.401457197  1.194138314 -0.249916971
 C -0.831210371  0.058438619  0.075761404
 H  0.737147894  0.094569880  1.482585720
 H  0.919146097  2.137569840  0.029096836
 H  2.446110649  1.222118771  0.077500559
 H  1.382782321  1.117669721 -1.343570094
 H  1.907112452 -1.644642213  0.521984477
 H  1.238314716 -1.423217847 -0.982891900

